sing20140605.12
TTAA  55121 48698
99005 26016 32002 00060 26823 25504 92745 22218 20517
85479 18822 19517 70124 10024 14014 50585 04312 13014
40758 13317 06009 30971 27924 07015 25099 37932 10518
20248 51136 09516 15429 67133 11017 10662 82550 06552
88999
77999=
TTCC  5512/ 48698=
TTDD  5512/ 48698
11965 82341 22939 77759 33907 71329 44903 71327 55847
72541
21212 11967 06058 22956 05560 33934 04037 44910 01020
55898 35018 66884 32517 77872 30018 88860 29015 99847
27518=
